c File: flat50_3_0.col
c
c SOURCE: Joseph Culberson (joe@cs.ualberta.ca)
c DESCRIPTION: Quasi-random coloring problem
c              generated with flatness = 0
c                             probability = 0.139
c                             known coloring = 3
c                             random seed = 1714
c              Creation Date:  Tue Jun  9 12:16:03 1998
c Maximum degree = 8 Minimum degree = 1
c p edge 50 115
c cnf created by edge2cnf
p cnf 150 545
-1 -2 0
-1 -3 0
-2 -3 0
1 2 3 0
-4 -5 0
-4 -6 0
-5 -6 0
4 5 6 0
-7 -8 0
-7 -9 0
-8 -9 0
7 8 9 0
-10 -11 0
-10 -12 0
-11 -12 0
10 11 12 0
-13 -14 0
-13 -15 0
-14 -15 0
13 14 15 0
-16 -17 0
-16 -18 0
-17 -18 0
16 17 18 0
-19 -20 0
-19 -21 0
-20 -21 0
19 20 21 0
-22 -23 0
-22 -24 0
-23 -24 0
22 23 24 0
-25 -26 0
-25 -27 0
-26 -27 0
25 26 27 0
-28 -29 0
-28 -30 0
-29 -30 0
28 29 30 0
-31 -32 0
-31 -33 0
-32 -33 0
31 32 33 0
-34 -35 0
-34 -36 0
-35 -36 0
34 35 36 0
-37 -38 0
-37 -39 0
-38 -39 0
37 38 39 0
-40 -41 0
-40 -42 0
-41 -42 0
40 41 42 0
-43 -44 0
-43 -45 0
-44 -45 0
43 44 45 0
-46 -47 0
-46 -48 0
-47 -48 0
46 47 48 0
-49 -50 0
-49 -51 0
-50 -51 0
49 50 51 0
-52 -53 0
-52 -54 0
-53 -54 0
52 53 54 0
-55 -56 0
-55 -57 0
-56 -57 0
55 56 57 0
-58 -59 0
-58 -60 0
-59 -60 0
58 59 60 0
-61 -62 0
-61 -63 0
-62 -63 0
61 62 63 0
-64 -65 0
-64 -66 0
-65 -66 0
64 65 66 0
-67 -68 0
-67 -69 0
-68 -69 0
67 68 69 0
-70 -71 0
-70 -72 0
-71 -72 0
70 71 72 0
-73 -74 0
-73 -75 0
-74 -75 0
73 74 75 0
-76 -77 0
-76 -78 0
-77 -78 0
76 77 78 0
-79 -80 0
-79 -81 0
-80 -81 0
79 80 81 0
-82 -83 0
-82 -84 0
-83 -84 0
82 83 84 0
-85 -86 0
-85 -87 0
-86 -87 0
85 86 87 0
-88 -89 0
-88 -90 0
-89 -90 0
88 89 90 0
-91 -92 0
-91 -93 0
-92 -93 0
91 92 93 0
-94 -95 0
-94 -96 0
-95 -96 0
94 95 96 0
-97 -98 0
-97 -99 0
-98 -99 0
97 98 99 0
-100 -101 0
-100 -102 0
-101 -102 0
100 101 102 0
-103 -104 0
-103 -105 0
-104 -105 0
103 104 105 0
-106 -107 0
-106 -108 0
-107 -108 0
106 107 108 0
-109 -110 0
-109 -111 0
-110 -111 0
109 110 111 0
-112 -113 0
-112 -114 0
-113 -114 0
112 113 114 0
-115 -116 0
-115 -117 0
-116 -117 0
115 116 117 0
-118 -119 0
-118 -120 0
-119 -120 0
118 119 120 0
-121 -122 0
-121 -123 0
-122 -123 0
121 122 123 0
-124 -125 0
-124 -126 0
-125 -126 0
124 125 126 0
-127 -128 0
-127 -129 0
-128 -129 0
127 128 129 0
-130 -131 0
-130 -132 0
-131 -132 0
130 131 132 0
-133 -134 0
-133 -135 0
-134 -135 0
133 134 135 0
-136 -137 0
-136 -138 0
-137 -138 0
136 137 138 0
-139 -140 0
-139 -141 0
-140 -141 0
139 140 141 0
-142 -143 0
-142 -144 0
-143 -144 0
142 143 144 0
-145 -146 0
-145 -147 0
-146 -147 0
145 146 147 0
-148 -149 0
-148 -150 0
-149 -150 0
148 149 150 0
-61 -1 0
-62 -2 0
-63 -3 0
-64 -1 0
-65 -2 0
-66 -3 0
-88 -1 0
-89 -2 0
-90 -3 0
-106 -1 0
-107 -2 0
-108 -3 0
-112 -1 0
-113 -2 0
-114 -3 0
-121 -1 0
-122 -2 0
-123 -3 0
-79 -4 0
-80 -5 0
-81 -6 0
-118 -4 0
-119 -5 0
-120 -6 0
-133 -4 0
-134 -5 0
-135 -6 0
-58 -7 0
-59 -8 0
-60 -9 0
-70 -7 0
-71 -8 0
-72 -9 0
-82 -7 0
-83 -8 0
-84 -9 0
-124 -7 0
-125 -8 0
-126 -9 0
-136 -7 0
-137 -8 0
-138 -9 0
-58 -10 0
-59 -11 0
-60 -12 0
-94 -10 0
-95 -11 0
-96 -12 0
-121 -10 0
-122 -11 0
-123 -12 0
-124 -10 0
-125 -11 0
-126 -12 0
-133 -10 0
-134 -11 0
-135 -12 0
-64 -13 0
-65 -14 0
-66 -15 0
-97 -13 0
-98 -14 0
-99 -15 0
-112 -13 0
-113 -14 0
-114 -15 0
-133 -13 0
-134 -14 0
-135 -15 0
-145 -13 0
-146 -14 0
-147 -15 0
-67 -16 0
-68 -17 0
-69 -18 0
-73 -16 0
-74 -17 0
-75 -18 0
-100 -16 0
-101 -17 0
-102 -18 0
-52 -19 0
-53 -20 0
-54 -21 0
-58 -19 0
-59 -20 0
-60 -21 0
-70 -19 0
-71 -20 0
-72 -21 0
-103 -19 0
-104 -20 0
-105 -21 0
-121 -19 0
-122 -20 0
-123 -21 0
-142 -19 0
-143 -20 0
-144 -21 0
-70 -22 0
-71 -23 0
-72 -24 0
-88 -22 0
-89 -23 0
-90 -24 0
-130 -22 0
-131 -23 0
-132 -24 0
-64 -25 0
-65 -26 0
-66 -27 0
-79 -25 0
-80 -26 0
-81 -27 0
-106 -25 0
-107 -26 0
-108 -27 0
-112 -25 0
-113 -26 0
-114 -27 0
-118 -25 0
-119 -26 0
-120 -27 0
-124 -25 0
-125 -26 0
-126 -27 0
-67 -28 0
-68 -29 0
-69 -30 0
-91 -28 0
-92 -29 0
-93 -30 0
-94 -28 0
-95 -29 0
-96 -30 0
-145 -28 0
-146 -29 0
-147 -30 0
-58 -31 0
-59 -32 0
-60 -33 0
-82 -31 0
-83 -32 0
-84 -33 0
-97 -31 0
-98 -32 0
-99 -33 0
-100 -31 0
-101 -32 0
-102 -33 0
-115 -31 0
-116 -32 0
-117 -33 0
-136 -31 0
-137 -32 0
-138 -33 0
-148 -31 0
-149 -32 0
-150 -33 0
-52 -34 0
-53 -35 0
-54 -36 0
-97 -34 0
-98 -35 0
-99 -36 0
-142 -34 0
-143 -35 0
-144 -36 0
-145 -37 0
-146 -38 0
-147 -39 0
-52 -40 0
-53 -41 0
-54 -42 0
-61 -40 0
-62 -41 0
-63 -42 0
-79 -40 0
-80 -41 0
-81 -42 0
-103 -40 0
-104 -41 0
-105 -42 0
-127 -40 0
-128 -41 0
-129 -42 0
-130 -40 0
-131 -41 0
-132 -42 0
-145 -40 0
-146 -41 0
-147 -42 0
-91 -43 0
-92 -44 0
-93 -45 0
-97 -43 0
-98 -44 0
-99 -45 0
-64 -46 0
-65 -47 0
-66 -48 0
-85 -46 0
-86 -47 0
-87 -48 0
-94 -46 0
-95 -47 0
-96 -48 0
-100 -46 0
-101 -47 0
-102 -48 0
-130 -46 0
-131 -47 0
-132 -48 0
-139 -46 0
-140 -47 0
-141 -48 0
-76 -49 0
-77 -50 0
-78 -51 0
-103 -49 0
-104 -50 0
-105 -51 0
-124 -49 0
-125 -50 0
-126 -51 0
-133 -49 0
-134 -50 0
-135 -51 0
-142 -49 0
-143 -50 0
-144 -51 0
-118 -52 0
-119 -53 0
-120 -54 0
-121 -52 0
-122 -53 0
-123 -54 0
-115 -55 0
-116 -56 0
-117 -57 0
-133 -55 0
-134 -56 0
-135 -57 0
-145 -55 0
-146 -56 0
-147 -57 0
-112 -58 0
-113 -59 0
-114 -60 0
-115 -58 0
-116 -59 0
-117 -60 0
-124 -58 0
-125 -59 0
-126 -60 0
-136 -58 0
-137 -59 0
-138 -60 0
-115 -61 0
-116 -62 0
-117 -63 0
-103 -64 0
-104 -65 0
-105 -66 0
-106 -64 0
-107 -65 0
-108 -66 0
-112 -64 0
-113 -65 0
-114 -66 0
-124 -64 0
-125 -65 0
-126 -66 0
-109 -67 0
-110 -68 0
-111 -69 0
-118 -67 0
-119 -68 0
-120 -69 0
-130 -67 0
-131 -68 0
-132 -69 0
-133 -67 0
-134 -68 0
-135 -69 0
-109 -70 0
-110 -71 0
-111 -72 0
-118 -70 0
-119 -71 0
-120 -72 0
-124 -70 0
-125 -71 0
-126 -72 0
-145 -70 0
-146 -71 0
-147 -72 0
-112 -73 0
-113 -74 0
-114 -75 0
-115 -76 0
-116 -77 0
-117 -78 0
-139 -79 0
-140 -80 0
-141 -81 0
-103 -82 0
-104 -83 0
-105 -84 0
-124 -82 0
-125 -83 0
-126 -84 0
-133 -82 0
-134 -83 0
-135 -84 0
-142 -82 0
-143 -83 0
-144 -84 0
-121 -85 0
-122 -86 0
-123 -87 0
-145 -85 0
-146 -86 0
-147 -87 0
-148 -88 0
-149 -89 0
-150 -90 0
-133 -91 0
-134 -92 0
-135 -93 0
-103 -94 0
-104 -95 0
-105 -96 0
-130 -94 0
-131 -95 0
-132 -96 0
-103 -100 0
-104 -101 0
-105 -102 0
-112 -100 0
-113 -101 0
-114 -102 0
-148 -100 0
-149 -101 0
-150 -102 0
